31 74 73 164 78 56 161 54 177 92 60 15 183 103 4 47 20 46 19 50 36 143 29 6 168 129 90 71 148 190 22 124 171 153 187 159 17 86 141 9 150 163 55 191 67 193 165 59 181 147 57 131 139 120 79 39 105 11 115 114 91 112 61 44 89 69 51 88 49 75 169 192 107 94 34 23 125 97 16 30 98 93 166 104 43 81 142 3 199 137 96 180 132 27 1 117 8 72 136 63 154 40 53 119 185 167 175 145 80 65 194 126 48 109 196 85 128 108 38 186 45 188 121 13 174 134 189 66 184 155 41 32 149 42 111 197 64 116 123 35 158 152 102 76 14 21 172 68 170 100 28 198 127 110 179 37 95 151 58 133 0 178 99 135 156 87 77 157 173 83 7 160 10 138 182 101 12 146 195 118 140 52 130 144 25 162 113 82 176 106 26 33 2 84 24 18 5 70 62 122